# Solution for model p01_budget_0p100
# Objective value = 1.0000000000006237e-01
Risk 1.0000000000006237e-01
0 0
1 0
3 0.001
4 30.001
5 3.0002000000000002e+01
6 40.002
7 4.0596082192575338e+01
9 8.2918795742227644e+01
c(0,1)_Rl 0.001
c(0,1)_Ru 0
c(0,3)_Rl 0
c(0,3)_Ru 0
c(3,4)_Rl 0
c(3,4)_Ru 0
c(4,5)_Rl 0
c(4,5)_Ru 0
c(3,5)_Rl 0
c(3,5)_Ru 0
c(1,2)_l 0
c(1,2)_u 4.0595082192575340e+01
c(2,7)_Fl 0
c(2,7)_Fu 4.8159078897742069e-02
c(1,7)_Rl 0
c(1,7)_Ru 0
c(5,6)_Rl 0
c(5,6)_Ru 0
c(3,6)_Rl 0
c(3,6)_Ru 0
c(7,8)_l 0
c(7,8)_u 42.3217135496523
c(1,8)_Fl 0
c(1,8)_Fu 2.5920460551160152e-02
c(0,9)_Rl 0
c(0,9)_Ru 4.6918195742227645e+01
c(8,9)_Fl 0
c(8,9)_Fu 2.5920460551160152e-02
c(6,9)_Rl 0
c(6,9)_Ru 0
Cost 4.6919195742227643e+01
